unsat
(:binary-propagations  95
 :conflicts            1
 :final-checks         1
 :max-generation       1
 :max-memory           34.30
 :memory               23.98
 :mk-bool-var          5110
 :mk-clause            1412
 :mk-clause-binary     6557
 :num-allocs           258263930
 :num-checks           1
 :propagations         95
 :quant-instantiations 1113
 :restarts             1
 :rlimit-count         1322589
 :time                 0.20)
